% adapted from https://github.com/MiniZinc/minizinc-examples/blob/master/jobshop/jobshop.mzn

hyperperiod_length = 55;
num_packets = 5;
num_links = 12;


             % P1  P2  P3  P4  P5
occupancy = [| 14, 26,  0,  0,  0      % L,0
             | 14, 26,  0,  0,  0      % 0,1
             | 14,  0,  0, 11,  0      % 1,L
             |  0, 26,  0,  0,  0      % 1,3
             |  0, 26, 24,  0,  0      % 3,L
             |  0,  0, 24, 21,  0      % L,2
             |  0,  0, 24, 21,  0      % 2,3
             |  0,  0,  0, 21,  0      % 3,1
             |  0,  0,  0,  0, 17      % L,3
             |  0,  0,  0,  0, 17      % 3,2
             |  0,  0,  0,  0, 17      % 2,0
             |  0,  0,  0,  0, 17 |];  % 0,L
  
             % P1  P2  P3  P4  P5
deadline  = [| 55, 55, -1, -1, -1      % L,0
             | 55, 55, -1, -1, -1      % 0,1
             | 55, -1, -1, -1, -1      % 1,L
             | -1, 55, -1, 55, -1      % 1,3
             | -1, 55, 55, -1, -1      % 3,L
             | -1, -1, 55, 55, -1      % L,2
             | -1, -1, 55, 55, -1      % 2,3
             | -1, -1, -1, 55, -1      % 3,1
             | -1, -1, -1, -1, 55      % L,3
             | -1, -1, -1, -1, 55      % 3,2
             | -1, -1, -1, -1, 55      % 2,0
             | -1, -1, -1, -1, 55 |];  % 0,L
             
             % P1  P2  P3  P4  P5
min_start = [|  0,  0, -1, -1, -1      % L,0
             |  0,  0, -1, -1, -1      % 0,1
             |  0, -1, -1, -1, -1      % 1,L
             | -1,  0, -1,  0, -1      % 1,3
             | -1,  0,  0, -1, -1      % 3,L
             | -1, -1,  0,  0, -1      % L,2
             | -1, -1,  0,  0, -1      % 2,3
             | -1, -1, -1,  0, -1      % 3,1
             | -1, -1, -1, -1,  0      % L,3
             | -1, -1, -1, -1,  0      % 3,2
             | -1, -1, -1, -1,  0      % 2,0
             | -1, -1, -1, -1,  0 |];  % 0,L